2 ANNO/Ricerca operativa/Esercizi_AMPL/7/completo2.dat
/*
max 4x1 + 3x2 - x3 + 2x4 

soggetto a
- x1 + 2x2 + x3 - x4 >= 2 
2x1 - x2 + x3 - 5x4 <= -3 

x1, . . . , x4 >= 0.
*/

set J := x1 , x2 , x3 , x4;
set I1 := r1;
set I2 := r2;

param b1:=
r1 2;
param b2:=
r2 -3;

param c:=
x1 4
x2 3
x3 -1
x4 2;

param a1:
	x1	x2	x3	x4=
r1	-1	2	1	-1;
param a2:
	x1	x2	x3	x4=
r2	2	-1	1	-5;